n = 100;
capacity = 100;
size = [80, 80, 80, 79, 79, 77, 76, 76, 75, 75, 75, 75, 74, 74, 73, 73, 72, 72, 70, 70, 70, 69, 68, 68, 68, 67, 67, 67, 65, 63, 62, 62, 61, 60, 60, 60, 59, 58, 57, 57, 56, 56, 55, 55, 54, 53, 53, 52, 52, 51, 50, 50, 49, 49, 49, 48, 48, 47, 47, 46, 45, 45, 44, 44, 44, 44, 44, 43, 40, 40, 39, 39, 37, 36, 35, 35, 35, 32, 31, 31, 31, 29, 29, 28, 28, 28, 27, 27, 27, 26, 26, 26, 26, 25, 25, 24, 24, 23, 20, 20];
